min: 3553 z_0 + 6459 z_1 + 3463 z_2 + 7674 z_3 + 7554 z_4 + 3463 z_5 + 4512 z_6 + 6 x_0_0 + 15 x_0_1 + 25 x_0_2 + 26 x_0_3 + 8 x_0_4 + 4 x_0_5 + 19 x_0_6 + 40 x_1_0 + 31 x_1_1 + 23 x_1_2 + 14 x_1_3 + 9 x_1_4 + 27 x_1_5 + 22 x_1_6 + 7 x_2_0 + 33 x_2_1 + 19 x_2_2 + 26 x_2_3 + 5 x_2_4 + 6 x_2_5 + 6 x_2_6 + 22 x_3_0 + 5 x_3_1 + 14 x_3_2 + 16 x_3_3 + 20 x_3_4 + 14 x_3_5 + 43 x_3_6 + 24 x_4_0 + 8 x_4_1 + 17 x_4_2 + 17 x_4_3 + 45 x_4_4 + 19 x_4_5 + 49 x_4_6 + 4 y_0_0 + 48 y_0_1 + 3 y_0_2 + 31 y_0_3 + 47 y_0_4 + 13 y_0_5 + 37 y_0_6 + 50 y_0_7 + 25 y_0_8 + 35 y_0_9 + 39 y_0_10 + 10 y_0_11 + 44 y_0_12 + 30 y_0_13 + 13 y_1_0 + 35 y_1_1 + 25 y_1_2 + 49 y_1_3 + 12 y_1_4 + 19 y_1_5 + 31 y_1_6 + 29 y_1_7 + 44 y_1_8 + 46 y_1_9 + 45 y_1_10 + 33 y_1_11 + 40 y_1_12 + 24 y_1_13 + 26 y_2_0 + 25 y_2_1 + 15 y_2_2 + 21 y_2_3 + 36 y_2_4 + 49 y_2_5 + 49 y_2_6 + 16 y_2_7 + 40 y_2_8 + 48 y_2_9 + 33 y_2_10 + 13 y_2_11 + 22 y_2_12 + 7 y_2_13 + 39 y_3_0 + 12 y_3_1 + 5 y_3_2 + 40 y_3_3 + 21 y_3_4 + 4 y_3_5 + 37 y_3_6 + 4 y_3_7 + 9 y_3_8 + 25 y_3_9 + 31 y_3_10 + 30 y_3_11 + 5 y_3_12 + 28 y_3_13 + 6 y_4_0 + 12 y_4_1 + 26 y_4_2 + 15 y_4_3 + 49 y_4_4 + 45 y_4_5 + 18 y_4_6 + 35 y_4_7 + 40 y_4_8 + 8 y_4_9 + 1 y_4_10 + 4 y_4_11 + 31 y_4_12 + 29 y_4_13 + 46 y_5_0 + 50 y_5_1 + 28 y_5_2 + 4 y_5_3 + 35 y_5_4 + 11 y_5_5 + 20 y_5_6 + 25 y_5_7 + 2 y_5_8 + 35 y_5_9 + 25 y_5_10 + 4 y_5_11 + 6 y_5_12 + 40 y_5_13 + 47 y_6_0 + 46 y_6_1 + 18 y_6_2 + 14 y_6_3 + 16 y_6_4 + 3 y_6_5 + 49 y_6_6 + 22 y_6_7 + 43 y_6_8 + 25 y_6_9 + 2 y_6_10 + 5 y_6_11 + 47 y_6_12 + 32 y_6_13;

x_0_0 + x_0_1 + x_0_2 + x_0_3 + x_0_4 + x_0_5 + x_0_6 <= 445;
x_1_0 + x_1_1 + x_1_2 + x_1_3 + x_1_4 + x_1_5 + x_1_6 <= 443;
x_2_0 + x_2_1 + x_2_2 + x_2_3 + x_2_4 + x_2_5 + x_2_6 <= 443;
x_3_0 + x_3_1 + x_3_2 + x_3_3 + x_3_4 + x_3_5 + x_3_6 <= 346;
x_4_0 + x_4_1 + x_4_2 + x_4_3 + x_4_4 + x_4_5 + x_4_6 <= 300;

x_0_0 + x_1_0 + x_2_0 + x_3_0 + x_4_0 - y_0_0 - y_0_1 - y_0_2 - y_0_3 - y_0_4 - y_0_5 - y_0_6 - y_0_7 - y_0_8 - y_0_9 - y_0_10 - y_0_11 - y_0_12 - y_0_13 = 0;
x_0_1 + x_1_1 + x_2_1 + x_3_1 + x_4_1 - y_1_0 - y_1_1 - y_1_2 - y_1_3 - y_1_4 - y_1_5 - y_1_6 - y_1_7 - y_1_8 - y_1_9 - y_1_10 - y_1_11 - y_1_12 - y_1_13 = 0;
x_0_2 + x_1_2 + x_2_2 + x_3_2 + x_4_2 - y_2_0 - y_2_1 - y_2_2 - y_2_3 - y_2_4 - y_2_5 - y_2_6 - y_2_7 - y_2_8 - y_2_9 - y_2_10 - y_2_11 - y_2_12 - y_2_13 = 0;
x_0_3 + x_1_3 + x_2_3 + x_3_3 + x_4_3 - y_3_0 - y_3_1 - y_3_2 - y_3_3 - y_3_4 - y_3_5 - y_3_6 - y_3_7 - y_3_8 - y_3_9 - y_3_10 - y_3_11 - y_3_12 - y_3_13 = 0;
x_0_4 + x_1_4 + x_2_4 + x_3_4 + x_4_4 - y_4_0 - y_4_1 - y_4_2 - y_4_3 - y_4_4 - y_4_5 - y_4_6 - y_4_7 - y_4_8 - y_4_9 - y_4_10 - y_4_11 - y_4_12 - y_4_13 = 0;
x_0_5 + x_1_5 + x_2_5 + x_3_5 + x_4_5 - y_5_0 - y_5_1 - y_5_2 - y_5_3 - y_5_4 - y_5_5 - y_5_6 - y_5_7 - y_5_8 - y_5_9 - y_5_10 - y_5_11 - y_5_12 - y_5_13 = 0;
x_0_6 + x_1_6 + x_2_6 + x_3_6 + x_4_6 - y_6_0 - y_6_1 - y_6_2 - y_6_3 - y_6_4 - y_6_5 - y_6_6 - y_6_7 - y_6_8 - y_6_9 - y_6_10 - y_6_11 - y_6_12 - y_6_13 = 0;

y_0_0 + y_0_1 + y_0_2 + y_0_3 + y_0_4 + y_0_5 + y_0_6 + y_0_7 + y_0_8 + y_0_9 + y_0_10 + y_0_11 + y_0_12 + y_0_13 - 362 z_0 <= 0;
y_1_0 + y_1_1 + y_1_2 + y_1_3 + y_1_4 + y_1_5 + y_1_6 + y_1_7 + y_1_8 + y_1_9 + y_1_10 + y_1_11 + y_1_12 + y_1_13 - 331 z_1 <= 0;
y_2_0 + y_2_1 + y_2_2 + y_2_3 + y_2_4 + y_2_5 + y_2_6 + y_2_7 + y_2_8 + y_2_9 + y_2_10 + y_2_11 + y_2_12 + y_2_13 - 681 z_2 <= 0;
y_3_0 + y_3_1 + y_3_2 + y_3_3 + y_3_4 + y_3_5 + y_3_6 + y_3_7 + y_3_8 + y_3_9 + y_3_10 + y_3_11 + y_3_12 + y_3_13 - 664 z_3 <= 0;
y_4_0 + y_4_1 + y_4_2 + y_4_3 + y_4_4 + y_4_5 + y_4_6 + y_4_7 + y_4_8 + y_4_9 + y_4_10 + y_4_11 + y_4_12 + y_4_13 - 378 z_4 <= 0;
y_5_0 + y_5_1 + y_5_2 + y_5_3 + y_5_4 + y_5_5 + y_5_6 + y_5_7 + y_5_8 + y_5_9 + y_5_10 + y_5_11 + y_5_12 + y_5_13 - 257 z_5 <= 0;
y_6_0 + y_6_1 + y_6_2 + y_6_3 + y_6_4 + y_6_5 + y_6_6 + y_6_7 + y_6_8 + y_6_9 + y_6_10 + y_6_11 + y_6_12 + y_6_13 - 456 z_6 <= 0;

y_0_0 + y_1_0 + y_2_0 + y_3_0 + y_4_0 + y_5_0 + y_6_0 = 75;
y_0_1 + y_1_1 + y_2_1 + y_3_1 + y_4_1 + y_5_1 + y_6_1 = 169;
y_0_2 + y_1_2 + y_2_2 + y_3_2 + y_4_2 + y_5_2 + y_6_2 = 68;
y_0_3 + y_1_3 + y_2_3 + y_3_3 + y_4_3 + y_5_3 + y_6_3 = 151;
y_0_4 + y_1_4 + y_2_4 + y_3_4 + y_4_4 + y_5_4 + y_6_4 = 75;
y_0_5 + y_1_5 + y_2_5 + y_3_5 + y_4_5 + y_5_5 + y_6_5 = 59;
y_0_6 + y_1_6 + y_2_6 + y_3_6 + y_4_6 + y_5_6 + y_6_6 = 74;
y_0_7 + y_1_7 + y_2_7 + y_3_7 + y_4_7 + y_5_7 + y_6_7 = 78;
y_0_8 + y_1_8 + y_2_8 + y_3_8 + y_4_8 + y_5_8 + y_6_8 = 76;
y_0_9 + y_1_9 + y_2_9 + y_3_9 + y_4_9 + y_5_9 + y_6_9 = 164;
y_0_10 + y_1_10 + y_2_10 + y_3_10 + y_4_10 + y_5_10 + y_6_10 = 113;
y_0_11 + y_1_11 + y_2_11 + y_3_11 + y_4_11 + y_5_11 + y_6_11 = 132;
y_0_12 + y_1_12 + y_2_12 + y_3_12 + y_4_12 + y_5_12 + y_6_12 = 63;
y_0_13 + y_1_13 + y_2_13 + y_3_13 + y_4_13 + y_5_13 + y_6_13 = 185;

z_0 + z_1 + z_2 + z_3 + z_4 + z_5 + z_6 <= 5;

bin z_0, z_1, z_2, z_3, z_4, z_5, z_6;
